webassembly/ejemplos_dzn/folder13_json_44.dzn
TERM = { '.', 's(5)', 'in_1', 'in_6', 'in_9', 'in_0', 's(4)', 'in_3', 's(1)', 's(7)', 's(2)', 'in_2', 's(8)', 's(6)', 'in_8', 's(0)', 's(3)', 'local_0', 'local_1', 'in_4', 'in_7', 'in_5'};
null = '.';
s = 13;
n = 15;
ndeps = 10;
max_registers_sz = 5;
NR = 2;
registers = [|'local_0', 'in_6', |'local_1', 'in_6'|];
dependencies = [|'i32.load_0', 'i32.store_1', |'i32.store_1', 'i32.store8_2', |'i32.store8_2', 'i32.load16_u_3', |'i32.store16_4', 'i32.load8_u_7', |'call[function_index(0)]_8', 'i32.store_9', |'i32.store_9', 'call[function_index(1)]_10', |'call[function_index(1)]_10', 'call[function_index(2)]_11', |'call[function_index(2)]_11', 'i32.load16_s_12', |'i32.load16_u_3', 'i32.store16_4', |'i32.load8_u_7', 'call[function_index(0)]_8'|];
GET_ENUM = { GET1, GET2, GET3, GET4, GET5, GET6, GET7};
SET_ENUM = { SET1, SET2, SET3, SET4, SET5, SET6, SET7};
TEE_ENUM = { TEE1, TEE2, TEE3, TEE4, TEE5, TEE6, TEE7};
N = 11;
OP = { 'call[function_index(0)]_8', 'call[function_index(1)]_10', 'call[function_index(2)]_11', 'i32.load_0', 'i32.store_1', 'i32.store8_2', 'i32.load16_u_3', 'i32.store16_4', 'i32.load8_u_7', 'i32.store_9', 'i32.load16_s_12' };
in_ops = [1, 1, 0, 1, 2, 2, 1, 2, 1, 2, 1 ];
out_ops = [1, 3, 1, 1, 0, 0, 1, 0, 1, 0, 1 ];
in1 = ['s(2)', 'in_9', '.', 'in_0', 's(0)', 'in_2', 'in_4', 's(1)', 'in_7', 's(3)', 's(7)' ];
in2 = ['.', '.', '.', '.', 'in_1', 'in_3', '.', 'in_5', '.', 'in_8', '.' ];
in3 = ['.', '.', '.', '.', '.', '.', '.', '.', '.', '.', '.' ];
out1 = ['s(3)', 's(6)', 's(7)', 's(0)', '.', '.', 's(1)', '.', 's(2)', '.', 's(8)' ];
out2 = ['.', 's(5)', '.', '.', '.', '.', '.', '.', '.', '.', '.' ];
out3 = ['.', 's(4)', '.', '.', '.', '.', '.', '.', '.', '.', '.' ];
comm = [false, false, false, false, false, false, false, false, false, false, false ];
gas = [1, 1, 1, 1, 1, 1, 1, 1, 1, 1, 1 ];
sz = [1, 1, 1, 1, 1, 1, 1, 1, 1, 1, 1 ];
stor = [true, true, true, false, true, true, false, true, false, true, false ];
lb = [ 1, 1, 1, 1, 1, 1, 1, 1, 1, 1, 1 ];
ub = [ 13, 13, 13, 13, 13, 13, 13, 13, 13, 13, 13 ];
startstack = [ 'in_0', 'in_1', 'in_2', 'in_3', 'in_4', 'in_5', 'in_6', 'in_7', 'in_8', 'in_9', null, null, null, null, null ];
endstack = [ 's(8)', 's(6)', 's(5)', 's(4)', null, null, null, null, null, null, null, null, null, null, null ];
